data/CVRPLIB/Vrp-Set-XML100/instances/XML100_1313_01.vrp
NAME : XML100_1313_01
COMMENT : Generated by Queiroga, Sadykov, Uchoa, and Vidal (2021)
TYPE : CVRP
DIMENSION : 101
EDGE_WEIGHT_TYPE : EUC_2D
CAPACITY : 8
NODE_COORD_SECTION
1    894  622 
2    752  529 
3    588  449 
4    21   642 
5    692  518 
6    450  112 
7    533  634 
8    611  192 
9    556  645 
10   479  404 
11   345  183 
12   453  880 
13   747  607 
14   99   641 
15   111  609 
16   824  473 
17   484  538 
18   640  608 
19   527  642 
20   480  166 
21   87   110 
22   728  109 
23   226  462 
24   319  912 
25   747  799 
26   657  126 
27   558  365 
28   566  530 
29   981  402 
30   367  58  
31   609  141 
32   562  558 
33   261  450 
34   487  980 
35   564  794 
36   599  605 
37   992  946 
38   331  602 
39   116  869 
40   542  134 
41   579  633 
42   598  623 
43   672  658 
44   886  75  
45   764  517 
46   324  284 
47   583  199 
48   239  710 
49   601  917 
50   542  696 
51   659  351 
52   692  665 
53   226  629 
54   691  635 
55   620  223 
56   784  826 
57   844  926 
58   689  30  
59   496  520 
60   784  637 
61   857  601 
62   570  228 
63   372  594 
64   359  32  
65   585  628 
66   371  666 
67   169  598 
68   429  549 
69   289  147 
70   174  143 
71   770  622 
72   552  709 
73   571  823 
74   9    579 
75   598  16  
76   806  601 
77   609  427 
78   879  753 
79   560  459 
80   247  351 
81   543  499 
82   98   788 
83   15   476 
84   242  853 
85   451  60  
86   646  504 
87   458  448 
88   469  306 
89   146  719 
90   534  527 
91   1000 159 
92   604  557 
93   470  159 
94   76   598 
95   338  972 
96   554  516 
97   686  434 
98   131  607 
99   605  228 
100  751  645 
101  233  409 
DEMAND_SECTION
1    0   
2    1   
3    1   
4    1   
5    1   
6    1   
7    1   
8    1   
9    1   
10   1   
11   1   
12   1   
13   1   
14   1   
15   1   
16   1   
17   1   
18   1   
19   1   
20   1   
21   1   
22   1   
23   1   
24   1   
25   1   
26   1   
27   1   
28   1   
29   1   
30   1   
31   1   
32   1   
33   1   
34   1   
35   1   
36   1   
37   1   
38   1   
39   1   
40   1   
41   1   
42   1   
43   1   
44   1   
45   1   
46   1   
47   1   
48   1   
49   1   
50   1   
51   1   
52   1   
53   1   
54   1   
55   1   
56   1   
57   1   
58   1   
59   1   
60   1   
61   1   
62   1   
63   1   
64   1   
65   1   
66   1   
67   1   
68   1   
69   1   
70   1   
71   1   
72   1   
73   1   
74   1   
75   1   
76   1   
77   1   
78   1   
79   1   
80   1   
81   1   
82   1   
83   1   
84   1   
85   1   
86   1   
87   1   
88   1   
89   1   
90   1   
91   1   
92   1   
93   1   
94   1   
95   1   
96   1   
97   1   
98   1   
99   1   
100  1   
101  1   
DEPOT_SECTION
1
-1
EOF
