data/CVRPLIB/Vrp-Set-XML100/solutions/XML100_1313_01.sol
Route #1: 24 48 33 94 23 11 72 34
Route #2: 37 66 97 14 13 88 47 65
Route #3: 31 27 95 80 78 2 76 96
Route #4: 12 17 35 91 85 4 1 44
Route #5: 25 30 74 57 21 43 90 28
Route #6: 67 62 32 22 100 79 45 87
Route #7: 15 50 26 9 86 58 16 89
Route #8: 77 36 56 55
Route #9: 5 84 29 63 20 69 68 10
Route #10: 71 49 18 6 8 40 64 41
Route #11: 83 38 81 3 73 82 93 52
Route #12: 59 99 51 42 53 70 75 60
Route #13: 54 7 46 39 92 19 61 98
Cost 16912
